c Random generated cnf formula, satisfiable: false
p cnf 10 50
5 -10 -4 0
-3 -4 -7 0
-2 -7 8 0
-2 3 -7 0
-5 7 -10 0
6 -7 9 0
7 1 6 0
4 9 -6 0
-8 3 6 0
3 -2 -10 0
-1 -10 -9 0
-3 -7 2 0
8 1 -5 0
-5 -8 1 0
-4 10 -1 0
9 8 2 0
-4 5 -10 0
-5 2 9 0
2 5 -3 0
5 -2 -8 0
4 5 6 0
-1 6 2 0
-7 -5 -6 0
-6 -9 -3 0
-6 8 -10 0
-2 9 -5 0
6 4 3 0
10 1 6 0
-8 -1 -6 0
5 8 -4 0
-2 1 -9 0
4 -5 1 0
3 7 -5 0
-9 2 -3 0
-4 2 1 0
-2 -4 1 0
4 7 -9 0
-5 6 8 0
-6 -4 7 0
3 -2 -4 0
5 8 -3 0
10 -7 -3 0
-10 1 -3 0
6 -5 -4 0
2 -7 5 0
4 3 -8 0
2 5 -7 0
6 10 -1 0
-1 -2 -8 0
5 -10 2 0
